c File: instances/32_0.15_2.col
c
c Description: Random graph of size 32 vertices and P(0.15000000000000002) of edges between any two vertices.
p col 32 496
e 1 11
e 1 12
e 1 23
e 1 31
e 2 3
e 2 9
e 2 16
e 2 25
e 2 29
e 3 9
e 3 13
e 3 23
e 3 27
e 3 29
e 3 30
e 3 31
e 4 7
e 4 19
e 4 20
e 4 31
e 5 8
e 5 9
e 5 10
e 5 13
e 5 15
e 5 21
e 5 24
e 5 28
e 6 7
e 6 11
e 6 12
e 6 15
e 6 24
e 7 16
e 8 9
e 8 10
e 8 17
e 8 21
e 8 27
e 8 29
e 8 30
e 8 31
e 9 14
e 9 17
e 9 18
e 9 22
e 9 23
e 10 16
e 11 19
e 11 30
e 12 24
e 13 20
e 13 21
e 13 25
e 13 32
e 14 20
e 14 27
e 14 32
e 15 19
e 15 20
e 15 22
e 15 23
e 15 27
e 15 31
e 16 17
e 16 23
e 17 22
e 17 28
e 17 30
e 17 32
e 19 20
e 19 21
e 19 32
e 20 28
e 20 29
e 21 30
e 21 32
e 22 29
e 23 26
e 23 27
e 24 25
e 24 27
e 26 31
e 29 30